c description: Perfect Matching Principle on 
c generator: CNFgen (0.9.0)
c copyright: (C) 2012-2020 Massimo Lauria <massimo.lauria@uniroma1.it>
c url: https://massimolauria.net/cnfgen
c
p cnf 80 635
-1 -2 0
-1 -3 0
-1 -4 0
-1 -5 0
-1 -6 0
-1 -7 0
-1 -8 0
-1 -9 0
-1 -10 0
-1 -11 0
-1 -12 0
-1 -13 0
-2 -3 0
-2 -4 0
-2 -5 0
-2 -6 0
-2 -7 0
-2 -8 0
-2 -9 0
-2 -10 0
-2 -11 0
-2 -12 0
-2 -13 0
-3 -4 0
-3 -5 0
-3 -6 0
-3 -7 0
-3 -8 0
-3 -9 0
-3 -10 0
-3 -11 0
-3 -12 0
-3 -13 0
-4 -5 0
-4 -6 0
-4 -7 0
-4 -8 0
-4 -9 0
-4 -10 0
-4 -11 0
-4 -12 0
-4 -13 0
-5 -6 0
-5 -7 0
-5 -8 0
-5 -9 0
-5 -10 0
-5 -11 0
-5 -12 0
-5 -13 0
-6 -7 0
-6 -8 0
-6 -9 0
-6 -10 0
-6 -11 0
-6 -12 0
-6 -13 0
-7 -8 0
-7 -9 0
-7 -10 0
-7 -11 0
-7 -12 0
-7 -13 0
-8 -9 0
-8 -10 0
-8 -11 0
-8 -12 0
-8 -13 0
-9 -10 0
-9 -11 0
-9 -12 0
-9 -13 0
-10 -11 0
-10 -12 0
-10 -13 0
-11 -12 0
-11 -13 0
-12 -13 0
1 2 3 4 5 6 7 8 9 10 11 12 13 0
-1 -14 0
-1 -15 0
-1 -16 0
-1 -17 0
-14 -15 0
-14 -16 0
-14 -17 0
-15 -16 0
-15 -17 0
-16 -17 0
1 14 15 16 17 0
-18 -19 0
-18 -20 0
-18 -21 0
-18 -22 0
-18 -23 0
-18 -24 0
-18 -25 0
-19 -20 0
-19 -21 0
-19 -22 0
-19 -23 0
-19 -24 0
-19 -25 0
-20 -21 0
-20 -22 0
-20 -23 0
-20 -24 0
-20 -25 0
-21 -22 0
-21 -23 0
-21 -24 0
-21 -25 0
-22 -23 0
-22 -24 0
-22 -25 0
-23 -24 0
-23 -25 0
-24 -25 0
18 19 20 21 22 23 24 25 0
-18 -26 0
-18 -27 0
-18 -28 0
-18 -29 0
-18 -30 0
-18 -31 0
-18 -32 0
-18 -33 0
-18 -34 0
-26 -27 0
-26 -28 0
-26 -29 0
-26 -30 0
-26 -31 0
-26 -32 0
-26 -33 0
-26 -34 0
-27 -28 0
-27 -29 0
-27 -30 0
-27 -31 0
-27 -32 0
-27 -33 0
-27 -34 0
-28 -29 0
-28 -30 0
-28 -31 0
-28 -32 0
-28 -33 0
-28 -34 0
-29 -30 0
-29 -31 0
-29 -32 0
-29 -33 0
-29 -34 0
-30 -31 0
-30 -32 0
-30 -33 0
-30 -34 0
-31 -32 0
-31 -33 0
-31 -34 0
-32 -33 0
-32 -34 0
-33 -34 0
18 26 27 28 29 30 31 32 33 34 0
-2 -26 0
-2 -35 0
-2 -36 0
-2 -37 0
-26 -35 0
-26 -36 0
-26 -37 0
-35 -36 0
-35 -37 0
-36 -37 0
2 26 35 36 37 0
-3 -19 0
-3 -27 0
-3 -38 0
-3 -39 0
-3 -40 0
-3 -41 0
-3 -42 0
-19 -27 0
-19 -38 0
-19 -39 0
-19 -40 0
-19 -41 0
-19 -42 0
-27 -38 0
-27 -39 0
-27 -40 0
-27 -41 0
-27 -42 0
-38 -39 0
-38 -40 0
-38 -41 0
-38 -42 0
-39 -40 0
-39 -41 0
-39 -42 0
-40 -41 0
-40 -42 0
-41 -42 0
3 19 27 38 39 40 41 42 0
-4 -14 0
-4 -28 0
-4 -35 0
-4 -43 0
-4 -44 0
-4 -45 0
-14 -28 0
-14 -35 0
-14 -43 0
-14 -44 0
-14 -45 0
-28 -35 0
-28 -43 0
-28 -44 0
-28 -45 0
-35 -43 0
-35 -44 0
-35 -45 0
-43 -44 0
-43 -45 0
-44 -45 0
4 14 28 35 43 44 45 0
-20 -38 0
-20 -46 0
-20 -47 0
-20 -48 0
-20 -49 0
-20 -50 0
-20 -51 0
-20 -52 0
-38 -46 0
-38 -47 0
-38 -48 0
-38 -49 0
-38 -50 0
-38 -51 0
-38 -52 0
-46 -47 0
-46 -48 0
-46 -49 0
-46 -50 0
-46 -51 0
-46 -52 0
-47 -48 0
-47 -49 0
-47 -50 0
-47 -51 0
-47 -52 0
-48 -49 0
-48 -50 0
-48 -51 0
-48 -52 0
-49 -50 0
-49 -51 0
-49 -52 0
-50 -51 0
-50 -52 0
-51 -52 0
20 38 46 47 48 49 50 51 52 0
-5 -15 0
-5 -21 0
-5 -29 0
-5 -39 0
-5 -53 0
-5 -54 0
-5 -55 0
-5 -56 0
-5 -57 0
-5 -58 0
-15 -21 0
-15 -29 0
-15 -39 0
-15 -53 0
-15 -54 0
-15 -55 0
-15 -56 0
-15 -57 0
-15 -58 0
-21 -29 0
-21 -39 0
-21 -53 0
-21 -54 0
-21 -55 0
-21 -56 0
-21 -57 0
-21 -58 0
-29 -39 0
-29 -53 0
-29 -54 0
-29 -55 0
-29 -56 0
-29 -57 0
-29 -58 0
-39 -53 0
-39 -54 0
-39 -55 0
-39 -56 0
-39 -57 0
-39 -58 0
-53 -54 0
-53 -55 0
-53 -56 0
-53 -57 0
-53 -58 0
-54 -55 0
-54 -56 0
-54 -57 0
-54 -58 0
-55 -56 0
-55 -57 0
-55 -58 0
-56 -57 0
-56 -58 0
-57 -58 0
5 15 21 29 39 53 54 55 56 57 58 0
-6 -16 0
-6 -46 0
-6 -53 0
-6 -59 0
-6 -60 0
-6 -61 0
-16 -46 0
-16 -53 0
-16 -59 0
-16 -60 0
-16 -61 0
-46 -53 0
-46 -59 0
-46 -60 0
-46 -61 0
-53 -59 0
-53 -60 0
-53 -61 0
-59 -60 0
-59 -61 0
-60 -61 0
6 16 46 53 59 60 61 0
-7 -54 0
-7 -59 0
-7 -62 0
-7 -63 0
-54 -59 0
-54 -62 0
-54 -63 0
-59 -62 0
-59 -63 0
-62 -63 0
7 54 59 62 63 0
-30 -40 0
-30 -43 0
-30 -60 0
-30 -62 0
-30 -64 0
-30 -65 0
-30 -66 0
-30 -67 0
-40 -43 0
-40 -60 0
-40 -62 0
-40 -64 0
-40 -65 0
-40 -66 0
-40 -67 0
-43 -60 0
-43 -62 0
-43 -64 0
-43 -65 0
-43 -66 0
-43 -67 0
-60 -62 0
-60 -64 0
-60 -65 0
-60 -66 0
-60 -67 0
-62 -64 0
-62 -65 0
-62 -66 0
-62 -67 0
-64 -65 0
-64 -66 0
-64 -67 0
-65 -66 0
-65 -67 0
-66 -67 0
30 40 43 60 62 64 65 66 67 0
-8 -17 0
-8 -22 0
-8 -36 0
-8 -47 0
-8 -55 0
-8 -61 0
-8 -68 0
-8 -69 0
-8 -70 0
-8 -71 0
-8 -72 0
-8 -73 0
-17 -22 0
-17 -36 0
-17 -47 0
-17 -55 0
-17 -61 0
-17 -68 0
-17 -69 0
-17 -70 0
-17 -71 0
-17 -72 0
-17 -73 0
-22 -36 0
-22 -47 0
-22 -55 0
-22 -61 0
-22 -68 0
-22 -69 0
-22 -70 0
-22 -71 0
-22 -72 0
-22 -73 0
-36 -47 0
-36 -55 0
-36 -61 0
-36 -68 0
-36 -69 0
-36 -70 0
-36 -71 0
-36 -72 0
-36 -73 0
-47 -55 0
-47 -61 0
-47 -68 0
-47 -69 0
-47 -70 0
-47 -71 0
-47 -72 0
-47 -73 0
-55 -61 0
-55 -68 0
-55 -69 0
-55 -70 0
-55 -71 0
-55 -72 0
-55 -73 0
-61 -68 0
-61 -69 0
-61 -70 0
-61 -71 0
-61 -72 0
-61 -73 0
-68 -69 0
-68 -70 0
-68 -71 0
-68 -72 0
-68 -73 0
-69 -70 0
-69 -71 0
-69 -72 0
-69 -73 0
-70 -71 0
-70 -72 0
-70 -73 0
-71 -72 0
-71 -73 0
-72 -73 0
8 17 22 36 47 55 61 68 69 70 71 72 73 0
-9 -31 0
-9 -48 0
-9 -68 0
-9 -74 0
-9 -75 0
-31 -48 0
-31 -68 0
-31 -74 0
-31 -75 0
-48 -68 0
-48 -74 0
-48 -75 0
-68 -74 0
-68 -75 0
-74 -75 0
9 31 48 68 74 75 0
-10 -64 0
-10 -69 0
-10 -74 0
-10 -76 0
-10 -77 0
-10 -78 0
-64 -69 0
-64 -74 0
-64 -76 0
-64 -77 0
-64 -78 0
-69 -74 0
-69 -76 0
-69 -77 0
-69 -78 0
-74 -76 0
-74 -77 0
-74 -78 0
-76 -77 0
-76 -78 0
-77 -78 0
10 64 69 74 76 77 78 0
-32 -41 0
-32 -44 0
-32 -49 0
-32 -65 0
-32 -70 0
-32 -75 0
-32 -76 0
-32 -79 0
-41 -44 0
-41 -49 0
-41 -65 0
-41 -70 0
-41 -75 0
-41 -76 0
-41 -79 0
-44 -49 0
-44 -65 0
-44 -70 0
-44 -75 0
-44 -76 0
-44 -79 0
-49 -65 0
-49 -70 0
-49 -75 0
-49 -76 0
-49 -79 0
-65 -70 0
-65 -75 0
-65 -76 0
-65 -79 0
-70 -75 0
-70 -76 0
-70 -79 0
-75 -76 0
-75 -79 0
-76 -79 0
32 41 44 49 65 70 75 76 79 0
-23 -50 0
-23 -66 0
-23 -71 0
-23 -77 0
-50 -66 0
-50 -71 0
-50 -77 0
-66 -71 0
-66 -77 0
-71 -77 0
23 50 66 71 77 0
-11 -42 0
-11 -45 0
-11 -51 0
-11 -56 0
-11 -67 0
-11 -72 0
-11 -78 0
-42 -45 0
-42 -51 0
-42 -56 0
-42 -67 0
-42 -72 0
-42 -78 0
-45 -51 0
-45 -56 0
-45 -67 0
-45 -72 0
-45 -78 0
-51 -56 0
-51 -67 0
-51 -72 0
-51 -78 0
-56 -67 0
-56 -72 0
-56 -78 0
-67 -72 0
-67 -78 0
-72 -78 0
11 42 45 51 56 67 72 78 0
-12 -24 0
-12 -33 0
-12 -37 0
-12 -57 0
-12 -73 0
-12 -79 0
-12 -80 0
-24 -33 0
-24 -37 0
-24 -57 0
-24 -73 0
-24 -79 0
-24 -80 0
-33 -37 0
-33 -57 0
-33 -73 0
-33 -79 0
-33 -80 0
-37 -57 0
-37 -73 0
-37 -79 0
-37 -80 0
-57 -73 0
-57 -79 0
-57 -80 0
-73 -79 0
-73 -80 0
-79 -80 0
12 24 33 37 57 73 79 80 0
-13 -25 0
-13 -34 0
-13 -52 0
-13 -58 0
-13 -63 0
-13 -80 0
-25 -34 0
-25 -52 0
-25 -58 0
-25 -63 0
-25 -80 0
-34 -52 0
-34 -58 0
-34 -63 0
-34 -80 0
-52 -58 0
-52 -63 0
-52 -80 0
-58 -63 0
-58 -80 0
-63 -80 0
13 25 34 52 58 63 80 0